\ Model Network Flow Problem with Time-Dependent Capacities
\ LP format - for model browsing. Use MPS format to capture full model detail.
Minimize
  79.44911736903863 flow[0,0] + 79.44911736903863 flow[0,1]
   + 79.44911736903863 flow[0,2] + 79.44911736903863 flow[0,3]
   + 79.44911736903863 flow[0,4] + 68.64809046503066 flow[1,0]
   + 68.64809046503066 flow[1,1] + 68.64809046503066 flow[1,2]
   + 68.64809046503066 flow[1,3] + 68.64809046503066 flow[1,4]
   + 46.05046089641484 flow[2,0] + 46.05046089641484 flow[2,1]
   + 46.05046089641484 flow[2,2] + 46.05046089641484 flow[2,3]
   + 46.05046089641484 flow[2,4] + 90.54248280268747 flow[3,0]
   + 90.54248280268747 flow[3,1] + 90.54248280268747 flow[3,2]
   + 90.54248280268747 flow[3,3] + 90.54248280268747 flow[3,4]
   + 87.05518034529818 flow[4,0] + 87.05518034529818 flow[4,1]
   + 87.05518034529818 flow[4,2] + 87.05518034529818 flow[4,3]
   + 87.05518034529818 flow[4,4] + 49.89182829649853 flow[5,0]
   + 49.89182829649853 flow[5,1] + 49.89182829649853 flow[5,2]
   + 49.89182829649853 flow[5,3] + 49.89182829649853 flow[5,4]
   + 13.87808833376784 flow[6,0] + 13.87808833376784 flow[6,1]
   + 13.87808833376784 flow[6,2] + 13.87808833376784 flow[6,3]
   + 13.87808833376784 flow[6,4] + 20.83195700239839 flow[7,0]
   + 20.83195700239839 flow[7,1] + 20.83195700239839 flow[7,2]
   + 20.83195700239839 flow[7,3] + 20.83195700239839 flow[7,4]
   + 81.54460239317358 flow[8,0] + 81.54460239317358 flow[8,1]
   + 81.54460239317358 flow[8,2] + 81.54460239317358 flow[8,3]
   + 81.54460239317358 flow[8,4] + 35.54610191475341 flow[9,0]
   + 35.54610191475341 flow[9,1] + 35.54610191475341 flow[9,2]
   + 35.54610191475341 flow[9,3] + 35.54610191475341 flow[9,4]
   + 69.0969538428363 flow[10,0] + 69.0969538428363 flow[10,1]
   + 69.0969538428363 flow[10,2] + 69.0969538428363 flow[10,3]
   + 69.0969538428363 flow[10,4] + 70.78671261349494 flow[11,0]
   + 70.78671261349494 flow[11,1] + 70.78671261349494 flow[11,2]
   + 70.78671261349494 flow[11,3] + 70.78671261349494 flow[11,4]
   + 58.64101723398691 flow[12,0] + 58.64101723398691 flow[12,1]
   + 58.64101723398691 flow[12,2] + 58.64101723398691 flow[12,3]
   + 58.64101723398691 flow[12,4] + 37.24699774419925 flow[13,0]
   + 37.24699774419925 flow[13,1] + 37.24699774419925 flow[13,2]
   + 37.24699774419925 flow[13,3] + 37.24699774419925 flow[13,4]
   + 47.22308500267582 flow[14,0] + 47.22308500267582 flow[14,1]
   + 47.22308500267582 flow[14,2] + 47.22308500267582 flow[14,3]
   + 47.22308500267582 flow[14,4]
Subject To
 capacity_0_0: flow[0,0] <= 1000
 capacity_0_1: flow[0,1] <= 1000
 capacity_0_2: flow[0,2] <= 1000
 capacity_0_3: flow[0,3] <= 1000
 capacity_0_4: flow[0,4] <= 1000
 capacity_1_0: flow[1,0] <= 1000
 capacity_1_1: flow[1,1] <= 1000
 capacity_1_2: flow[1,2] <= 1000
 capacity_1_3: flow[1,3] <= 1000
 capacity_1_4: flow[1,4] <= 1000
 capacity_2_0: flow[2,0] <= 1000
 capacity_2_1: flow[2,1] <= 1000
 capacity_2_2: flow[2,2] <= 1000
 capacity_2_3: flow[2,3] <= 1000
 capacity_2_4: flow[2,4] <= 1000
 capacity_3_0: flow[3,0] <= 1000
 capacity_3_1: flow[3,1] <= 1000
 capacity_3_2: flow[3,2] <= 1000
 capacity_3_3: flow[3,3] <= 1000
 capacity_3_4: flow[3,4] <= 1000
 capacity_4_0: flow[4,0] <= 1000
 capacity_4_1: flow[4,1] <= 1000
 capacity_4_2: flow[4,2] <= 1000
 capacity_4_3: flow[4,3] <= 1000
 capacity_4_4: flow[4,4] <= 1000
 capacity_5_0: flow[5,0] <= 1000
 capacity_5_1: flow[5,1] <= 1000
 capacity_5_2: flow[5,2] <= 1000
 capacity_5_3: flow[5,3] <= 1000
 capacity_5_4: flow[5,4] <= 1000
 capacity_6_0: flow[6,0] <= 1000
 capacity_6_1: flow[6,1] <= 1000
 capacity_6_2: flow[6,2] <= 1000
 capacity_6_3: flow[6,3] <= 1000
 capacity_6_4: flow[6,4] <= 1000
 capacity_7_0: flow[7,0] <= 1000
 capacity_7_1: flow[7,1] <= 1000
 capacity_7_2: flow[7,2] <= 1000
 capacity_7_3: flow[7,3] <= 1000
 capacity_7_4: flow[7,4] <= 1000
 capacity_8_0: flow[8,0] <= 1000
 capacity_8_1: flow[8,1] <= 1000
 capacity_8_2: flow[8,2] <= 1000
 capacity_8_3: flow[8,3] <= 1000
 capacity_8_4: flow[8,4] <= 1000
 capacity_9_0: flow[9,0] <= 1000
 capacity_9_1: flow[9,1] <= 1000
 capacity_9_2: flow[9,2] <= 1000
 capacity_9_3: flow[9,3] <= 1000
 capacity_9_4: flow[9,4] <= 1000
 capacity_10_0: flow[10,0] <= 1000
 capacity_10_1: flow[10,1] <= 1000
 capacity_10_2: flow[10,2] <= 1000
 capacity_10_3: flow[10,3] <= 1000
 capacity_10_4: flow[10,4] <= 1000
 capacity_11_0: flow[11,0] <= 1000
 capacity_11_1: flow[11,1] <= 1000
 capacity_11_2: flow[11,2] <= 1000
 capacity_11_3: flow[11,3] <= 1000
 capacity_11_4: flow[11,4] <= 1000
 capacity_12_0: flow[12,0] <= 1000
 capacity_12_1: flow[12,1] <= 1000
 capacity_12_2: flow[12,2] <= 1000
 capacity_12_3: flow[12,3] <= 1000
 capacity_12_4: flow[12,4] <= 1000
 capacity_13_0: flow[13,0] <= 1000
 capacity_13_1: flow[13,1] <= 1000
 capacity_13_2: flow[13,2] <= 1000
 capacity_13_3: flow[13,3] <= 1000
 capacity_13_4: flow[13,4] <= 1000
 capacity_14_0: flow[14,0] <= 1000
 capacity_14_1: flow[14,1] <= 1000
 capacity_14_2: flow[14,2] <= 1000
 capacity_14_3: flow[14,3] <= 1000
 capacity_14_4: flow[14,4] <= 1000
 flow_conservation_0_0: <= 0
 flow_conservation_0_1: <= 0
 flow_conservation_0_2: <= 0
 flow_conservation_0_3: <= 0
 flow_conservation_0_4: <= 0
 flow_conservation_1_0: - flow[8,0] = 0
 flow_conservation_1_1: - flow[8,1] = 0
 flow_conservation_1_2: - flow[8,2] = 0
 flow_conservation_1_3: - flow[8,3] = 0
 flow_conservation_1_4: - flow[8,4] = 0
 flow_conservation_2_0: - flow[6,0] = 0
 flow_conservation_2_1: - flow[6,1] = 0
 flow_conservation_2_2: - flow[6,2] = 0
 flow_conservation_2_3: - flow[6,3] = 0
 flow_conservation_2_4: - flow[6,4] = 0
 flow_conservation_3_0: flow[12,0] = 0
 flow_conservation_3_1: flow[12,1] = 0
 flow_conservation_3_2: flow[12,2] = 0
 flow_conservation_3_3: flow[12,3] = 0
 flow_conservation_3_4: flow[12,4] = 0
 flow_conservation_4_0: flow[3,0] - flow[5,0] = 0
 flow_conservation_4_1: flow[3,1] - flow[5,1] = 0
 flow_conservation_4_2: flow[3,2] - flow[5,2] = 0
 flow_conservation_4_3: flow[3,3] - flow[5,3] = 0
 flow_conservation_4_4: flow[3,4] - flow[5,4] = 0
 flow_conservation_5_0: flow[0,0] - flow[1,0] + flow[7,0] = 10
 flow_conservation_5_1: flow[0,1] - flow[1,1] + flow[7,1] = 10
 flow_conservation_5_2: flow[0,2] - flow[1,2] + flow[7,2] = 10
 flow_conservation_5_3: flow[0,3] - flow[1,3] + flow[7,3] = 10
 flow_conservation_5_4: flow[0,4] - flow[1,4] + flow[7,4] = 10
 flow_conservation_6_0: - flow[4,0] + flow[9,0] - flow[10,0] = 0
 flow_conservation_6_1: - flow[4,1] + flow[9,1] - flow[10,1] = 0
 flow_conservation_6_2: - flow[4,2] + flow[9,2] - flow[10,2] = 0
 flow_conservation_6_3: - flow[4,3] + flow[9,3] - flow[10,3] = 0
 flow_conservation_6_4: - flow[4,4] + flow[9,4] - flow[10,4] = 0
 flow_conservation_7_0: - flow[3,0] + flow[5,0] + flow[10,0] - flow[12,0]
   = 0
 flow_conservation_7_1: - flow[3,1] + flow[5,1] + flow[10,1] - flow[12,1]
   = 0
 flow_conservation_7_2: - flow[3,2] + flow[5,2] + flow[10,2] - flow[12,2]
   = 0
 flow_conservation_7_3: - flow[3,3] + flow[5,3] + flow[10,3] - flow[12,3]
   = 0
 flow_conservation_7_4: - flow[3,4] + flow[5,4] + flow[10,4] - flow[12,4]
   = 0
 flow_conservation_8_0: - flow[0,0] + flow[6,0] + flow[8,0] = -10
 flow_conservation_8_1: - flow[0,1] + flow[6,1] + flow[8,1] = -10
 flow_conservation_8_2: - flow[0,2] + flow[6,2] + flow[8,2] = -10
 flow_conservation_8_3: - flow[0,3] + flow[6,3] + flow[8,3] = -10
 flow_conservation_8_4: - flow[0,4] + flow[6,4] + flow[8,4] = -10
 flow_conservation_9_0: flow[1,0] + flow[4,0] - flow[7,0] - flow[9,0] = 0
 flow_conservation_9_1: flow[1,1] + flow[4,1] - flow[7,1] - flow[9,1] = 0
 flow_conservation_9_2: flow[1,2] + flow[4,2] - flow[7,2] - flow[9,2] = 0
 flow_conservation_9_3: flow[1,3] + flow[4,3] - flow[7,3] - flow[9,3] = 0
 flow_conservation_9_4: flow[1,4] + flow[4,4] - flow[7,4] - flow[9,4] = 0
Bounds
End
